NAME : ClusterId_1024 
COMMENT : (Gillet and Johnson) 
TYPE : CVRP 
DIMENSION : 2 
EDGE_WEIGHT_TYPE : EUC_2D 
CAPACITY : 500 
NODE_COORD_SECTION 
1024 1873 9889 
520 1687 9865 
DEMAND_SECTION 
1024 1371
520 34
DEPOT_SECTION 
1024
 -1
EOF